% Logging successfully configured
=====UNKNOWN=====
% time elapsed: 300.28 s
%%%mzn-stat: initTime=0.017758538
%%%mzn-stat: nodes=451658
%%%mzn-stat: restarts=0
%%%mzn-stat: peakDepth=42
%%%mzn-stat: solveTime=293.989315674
%%%mzn-stat: variables=1375
%%%mzn-stat: propagators=5785
%%%mzn-stat: failures=394204
%%%mzn-stat: propagations=546567201
%%%mzn-stat: nogoods=394204
%%%mzn-stat: numAtomicConstraintsPropagated=0
%%%mzn-stat: circuitNumber4951PropagationsThatFoundConflict=807
%%%mzn-stat: circuitNumber4951TotalFixedEdgesAtConflict=60273
%%%mzn-stat: circuitNumber4951NumberOfConflicts=807
%%%mzn-stat: circuitNumber4951PropagationsThatPruned=23159
%%%mzn-stat: circuitNumber4951PropagationsTotal=394172
%%%mzn-stat: AverageConflictSize=14.650515976499477
%%%mzn-stat: NumUnitNogoodsLearned=0
%%%mzn-stat: AverageLearnedNogoodLength=53.16901401304908
%%%mzn-stat: AverageBacktrackAmount=0
%%%mzn-stat: AverageLbd=20.645379042323263
%%%mzn-stat: 2AutonomousSearchNumBackupCalled=0
%%%mzn-stat: 2AutonomousSearchNumPredicatesRemoved=0
%%%mzn-stat: 2AutonomousSearchNumCalls=0
%%%mzn-stat: 2AutonomousSearchNumPredicatesAdded=6870
%%%mzn-stat: 2AutonomousSearchAverageSizeOfHeap=0
%%%mzn-stat: 2AutonomousSearchNumAssignedPredicatesEncountered=0
%%%mzn-stat-end
